Cost: 756
0-29-5-37-20-15-57-0
0-7-53-14-11-38-26-0
0-48-47-36-59-21-30-0
0-33-43-41-56-23-16-51-0
0-4-45-27-52-34-0
0-46-8-35-19-54-13-0
0-3-44-32-9-39-0
0-17-12-31-10-58-0
0-2-28-22-42-1-6-0
0-49-24-18-55-25-50-40-0
Cost: 756
0-34-52-27-45-4-0
0-33-43-41-56-23-16-51-0
0-30-48-47-36-59-21-0
0-26-38-11-14-53-7-0
0-2-28-22-42-1-6-0
0-40-50-25-55-18-24-49-0
0-39-9-32-44-3-0
0-17-12-31-10-58-0
0-46-8-35-19-54-13-0
0-57-15-20-37-5-29-0
Cost: 756
0-2-28-22-42-1-6-0
0-26-38-11-14-53-7-0
0-40-50-25-55-18-24-49-0
0-39-9-32-44-3-0
0-51-16-23-56-41-43-33-0
0-13-54-19-35-8-46-0
0-34-52-27-45-4-0
0-58-10-31-12-17-0
0-21-59-36-47-48-30-0
0-29-5-37-20-15-57-0
Cost: 756
0-3-44-32-9-39-0
0-30-21-59-36-47-48-0
0-26-38-11-14-53-7-0
0-4-45-27-52-34-0
0-40-50-25-55-18-24-49-0
0-58-10-31-12-17-0
0-51-16-23-56-41-43-33-0
0-2-28-22-42-1-6-0
0-57-15-20-37-5-29-0
0-13-54-19-35-8-46-0
Cost: 756
0-34-52-27-45-4-0
0-3-44-32-9-39-0
0-6-1-42-22-28-2-0
0-33-43-41-56-23-16-51-0
0-48-47-36-59-21-30-0
0-29-5-37-20-15-57-0
0-49-24-18-55-25-50-40-0
0-7-53-14-11-38-26-0
0-13-54-19-35-8-46-0
0-17-12-31-10-58-0
Cost: 756
0-40-50-25-55-18-24-49-0
0-57-15-20-37-5-29-0
0-30-21-59-36-47-48-0
0-46-8-35-19-54-13-0
0-6-1-42-22-28-2-0
0-58-10-31-12-17-0
0-34-52-27-45-4-0
0-39-9-32-44-3-0
0-33-43-41-56-23-16-51-0
0-7-53-14-11-38-26-0
Cost: 756
0-29-5-37-20-15-57-0
0-3-44-32-9-39-0
0-49-24-18-55-25-50-40-0
0-51-16-23-56-41-43-33-0
0-26-38-11-14-53-7-0
0-30-21-59-36-47-48-0
0-2-28-22-42-1-6-0
0-13-54-19-35-8-46-0
0-4-45-27-52-34-0
0-58-10-31-12-17-0
Cost: 756
0-29-5-37-20-15-57-0
0-3-44-32-9-39-0
0-49-24-18-55-25-50-40-0
0-51-16-23-56-41-43-33-0
0-26-38-11-14-53-7-0
0-30-21-59-36-47-48-0
0-2-28-22-42-1-6-0
0-13-54-19-35-8-46-0
0-4-45-27-52-34-0
0-58-10-31-12-17-0
Cost: 756
0-29-5-37-20-15-57-0
0-3-44-32-9-39-0
0-49-24-18-55-25-50-40-0
0-51-16-23-56-41-43-33-0
0-26-38-11-14-53-7-0
0-30-21-59-36-47-48-0
0-2-28-22-42-1-6-0
0-13-54-19-35-8-46-0
0-4-45-27-52-34-0
0-58-10-31-12-17-0
Cost: 756
0-29-5-37-20-15-57-0
0-3-44-32-9-39-0
0-49-24-18-55-25-50-40-0
0-51-16-23-56-41-43-33-0
0-26-38-11-14-53-7-0
0-30-21-59-36-47-48-0
0-2-28-22-42-1-6-0
0-13-54-19-35-8-46-0
0-4-45-27-52-34-0
0-58-10-31-12-17-0
Cost: 756
0-29-5-37-20-15-57-0
0-3-44-32-9-39-0
0-49-24-18-55-25-50-40-0
0-51-16-23-56-41-43-33-0
0-26-38-11-14-53-7-0
0-30-21-59-36-47-48-0
0-2-28-22-42-1-6-0
0-13-54-19-35-8-46-0
0-4-45-27-52-34-0
0-58-10-31-12-17-0
Cost: 756
0-29-5-37-20-15-57-0
0-3-44-32-9-39-0
0-49-24-18-55-25-50-40-0
0-51-16-23-56-41-43-33-0
0-26-38-11-14-53-7-0
0-30-21-59-36-47-48-0
0-2-28-22-42-1-6-0
0-13-54-19-35-8-46-0
0-4-45-27-52-34-0
0-58-10-31-12-17-0
Cost: 756
0-29-5-37-20-15-57-0
0-3-44-32-9-39-0
0-49-24-18-55-25-50-40-0
0-51-16-23-56-41-43-33-0
0-26-38-11-14-53-7-0
0-30-21-59-36-47-48-0
0-2-28-22-42-1-6-0
0-13-54-19-35-8-46-0
0-4-45-27-52-34-0
0-58-10-31-12-17-0
Cost: 762
0-34-46-8-14-53-7-0
0-21-59-36-47-48-45-0
0-35-11-38-10-58-26-0
0-30-2-28-22-33-0
0-9-25-55-31-39-0
0-16-49-24-18-50-32-17-0
0-29-5-37-20-15-57-0
0-19-54-13-27-52-4-0
0-6-1-43-42-41-56-23-0
0-51-3-44-40-12-0
Cost: 756
0-29-5-37-20-15-57-0
0-3-44-32-9-39-0
0-49-24-18-55-25-50-40-0
0-51-16-23-56-41-43-33-0
0-26-38-11-14-53-7-0
0-30-21-59-36-47-48-0
0-2-28-22-42-1-6-0
0-13-54-19-35-8-46-0
0-4-45-27-52-34-0
0-58-10-31-12-17-0
Cost: 756
0-29-5-37-20-15-57-0
0-3-44-32-9-39-0
0-49-24-18-55-25-50-40-0
0-51-16-23-56-41-43-33-0
0-26-38-11-14-53-7-0
0-30-21-59-36-47-48-0
0-2-28-22-42-1-6-0
0-13-54-19-35-8-46-0
0-4-45-27-52-34-0
0-58-10-31-12-17-0
Cost: 756
0-29-5-37-20-15-57-0
0-3-44-32-9-39-0
0-49-24-18-55-25-50-40-0
0-51-16-23-56-41-43-33-0
0-26-38-11-14-53-7-0
0-30-21-59-36-47-48-0
0-2-28-22-42-1-6-0
0-13-54-19-35-8-46-0
0-4-45-27-52-34-0
0-58-10-31-12-17-0
Cost: 756
0-57-15-20-37-5-29-0
0-4-45-27-52-34-0
0-58-10-31-12-17-0
0-13-54-19-35-8-46-0
0-6-1-42-22-28-2-0
0-7-53-14-11-38-26-0
0-39-9-32-44-3-0
0-33-43-41-56-23-16-51-0
0-30-48-47-36-59-21-0
0-40-50-25-55-18-24-49-0
Cost: 756
0-51-16-23-56-41-43-33-0
0-7-53-14-11-38-26-0
0-48-47-36-59-21-30-0
0-29-5-37-20-15-57-0
0-13-54-19-35-8-46-0
0-4-45-27-52-34-0
0-40-50-25-55-18-24-49-0
0-6-1-42-22-28-2-0
0-17-12-31-10-58-0
0-3-44-32-9-39-0
Cost: 756
0-51-16-23-56-41-43-33-0
0-7-53-14-11-38-26-0
0-48-47-36-59-21-30-0
0-29-5-37-20-15-57-0
0-13-54-19-35-8-46-0
0-4-45-27-52-34-0
0-40-50-25-55-18-24-49-0
0-6-1-42-22-28-2-0
0-17-12-31-10-58-0
0-3-44-32-9-39-0
Cost: 756
0-2-28-22-42-1-6-0
0-39-9-32-44-3-0
0-51-16-23-56-41-43-33-0
0-26-38-11-14-53-7-0
0-46-8-35-19-54-13-0
0-17-12-31-10-58-0
0-40-50-25-55-18-24-49-0
0-4-45-27-52-34-0
0-30-48-47-36-59-21-0
0-57-15-20-37-5-29-0
Cost: 758
0-6-33-22-28-2-0
0-34-46-27-45-4-0
0-1-43-42-41-56-23-51-0
0-17-32-50-18-24-49-16-0
0-10-38-11-53-35-8-0
0-52-13-54-19-14-7-0
0-57-15-20-37-5-29-0
0-30-21-59-36-47-48-0
0-12-39-9-44-3-0
0-40-25-55-31-58-26-0
Cost: 756
0-2-28-22-42-1-6-0
0-26-38-11-14-53-7-0
0-34-52-27-45-4-0
0-57-15-20-37-5-29-0
0-46-8-35-19-54-13-0
0-30-48-47-36-59-21-0
0-51-16-23-56-41-43-33-0
0-40-50-25-55-18-24-49-0
0-3-44-32-9-39-0
0-17-12-31-10-58-0
Cost: 758
0-6-33-22-28-2-0
0-34-46-27-45-4-0
0-1-43-42-41-56-23-51-0
0-17-32-50-18-24-49-16-0
0-10-38-11-53-35-8-0
0-52-13-54-19-14-7-0
0-57-15-20-37-5-29-0
0-30-21-59-36-47-48-0
0-12-39-9-44-3-0
0-40-25-55-31-58-26-0
Cost: 756
0-57-15-20-37-5-29-0
0-4-45-27-52-34-0
0-58-10-31-12-17-0
0-13-54-19-35-8-46-0
0-6-1-42-22-28-2-0
0-7-53-14-11-38-26-0
0-39-9-32-44-3-0
0-33-43-41-56-23-16-51-0
0-30-48-47-36-59-21-0
0-40-50-25-55-18-24-49-0
Cost: 756
0-51-16-23-56-41-43-33-0
0-57-15-20-37-5-29-0
0-48-47-36-59-21-30-0
0-2-28-22-42-1-6-0
0-7-53-14-11-38-26-0
0-4-45-27-52-34-0
0-46-8-35-19-54-13-0
0-3-44-32-9-39-0
0-58-10-31-12-17-0
0-40-50-25-55-18-24-49-0
Cost: 756
0-26-38-11-14-53-7-0
0-30-48-47-36-59-21-0
0-29-5-37-20-15-57-0
0-51-16-23-56-41-43-33-0
0-17-12-31-10-58-0
0-4-45-27-52-34-0
0-2-28-22-42-1-6-0
0-46-8-35-19-54-13-0
0-40-50-25-55-18-24-49-0
0-39-9-32-44-3-0
Cost: 776
0-29-57-13-27-52-34-0
0-2-28-22-42-43-1-0
0-30-21-59-36-47-48-0
0-4-45-15-20-37-5-0
0-12-39-9-40-0
0-6-33-41-56-23-49-16-0
0-26-58-38-11-53-7-0
0-10-31-55-25-50-44-0
0-46-8-54-19-14-35-0
0-51-3-24-18-32-17-0
Cost: 773
0-50-18-55-25-9-39-0
0-47-36-59-21-28-2-0
0-8-35-14-11-53-7-0
0-30-48-5-20-37-29-0
0-3-24-49-56-23-16-6-0
0-19-54-13-57-15-45-0
0-17-51-44-32-40-26-0
0-4-27-52-34-46-0
0-33-1-43-41-42-22-0
0-12-58-38-10-31-0
Cost: 756
0-39-9-32-44-3-0
0-48-47-36-59-21-30-0
0-57-15-20-37-5-29-0
0-6-1-42-22-28-2-0
0-17-12-31-10-58-0
0-34-52-27-45-4-0
0-46-8-35-19-54-13-0
0-7-53-14-11-38-26-0
0-51-16-23-56-41-43-33-0
0-40-50-25-55-18-24-49-0
Cost: 756
0-7-53-14-11-38-26-0
0-17-12-31-10-58-0
0-30-48-47-36-59-21-0
0-3-44-32-9-39-0
0-57-15-20-37-5-29-0
0-40-50-25-55-18-24-49-0
0-51-16-23-56-41-43-33-0
0-4-45-27-52-34-0
0-6-1-42-22-28-2-0
0-46-8-35-19-54-13-0
